NAME : local_3
TYPE : ATSP
DIMENSION : 16
EDGE_WEIGHT_TYPE : EXPLICIT
EDGE_WEIGHT_FORMAT : FULL_MATRIX
EDGE_WEIGHT_SECTION
0 10000000 498 10000000 517 986 619 986 10000000 10000000 677 10000000 611 809 740 537 
0 0 10000000 10000000 10000000 624 10000000 418 275 483 10000000 10000000 10000000 10000000 10000000 10000000 
0 10000000 0 10000000 834 10000000 10000000 10000000 10000000 10000000 10000000 912 728 598 246 173 
0 10000000 10000000 0 839 1440 465 10000000 10000000 10000000 369 10000000 10000000 10000000 10000000 10000000 
0 10000000 834 839 0 10000000 425 10000000 10000000 10000000 525 10000000 326 827 10000000 899 
0 624 10000000 1686 10000000 0 1171 216 436 317 1094 10000000 10000000 10000000 10000000 10000000 
0 10000000 10000000 465 425 1244 0 1211 10000000 10000000 136 10000000 750 10000000 10000000 10000000 
0 418 10000000 10000000 10000000 216 1057 0 286 286 1073 10000000 10000000 10000000 10000000 10000000 
0 275 10000000 10000000 10000000 436 10000000 286 0 211 10000000 10000000 10000000 10000000 10000000 10000000 
0 483 10000000 10000000 10000000 317 10000000 286 211 0 10000000 10000000 10000000 10000000 10000000 10000000 
0 10000000 10000000 369 525 1253 136 1068 10000000 10000000 0 10000000 843 10000000 10000000 10000000 
0 10000000 912 10000000 10000000 10000000 10000000 10000000 10000000 10000000 10000000 0 10000000 775 719 963 
0 10000000 728 10000000 326 10000000 750 10000000 10000000 10000000 843 10000000 0 535 871 833 
0 10000000 598 10000000 827 10000000 10000000 10000000 10000000 10000000 10000000 775 535 0 629 757 
0 10000000 246 10000000 10000000 10000000 10000000 10000000 10000000 10000000 10000000 719 871 629 0 279 
0 10000000 173 10000000 899 10000000 10000000 10000000 10000000 10000000 10000000 963 833 757 279 0 
EOF